# Cost: 695

# Tail Head Net
 68  18 1
118  68 1
168 118 1
218 168 1
268 218 1
318 268 1
368 318 1
418 368 1
468 418 1
518 468 1
568 518 1
618 568 1
668 618 1
718 668 1
768 718 1
769 768 1
770 769 1
820 770 1
870 820 1
920 870 1
970 920 1
1020 970 1
1070 1020 1
1120 1070 1
1170 1120 1
1220 1170 1
1270 1220 1
1320 1270 1
1370 1320 1
1420 1370 1
1470 1420 1
1471 1470 1
1472 1471 1
1522 1472 1
1523 1522 1
1573 1523 1
1623 1573 1
1673 1623 1
1674 1673 1
1675 1674 1
1676 1675 1
1677 1676 1
1727 1677 1
1727 1777 1
1728 1727 1
1729 1728 1
1730 1729 1
1731 1730 1
1732 1731 1
1733 1732 1
1734 1733 1
1735 1734 1
1736 1735 1
1737 1736 1
1738 1737 1
1739 1738 1
1740 1739 1
1741 1740 1
1742 1741 1
1743 1742 1
1744 1743 1
1745 1744 1
1746 1745 1
1747 1746 1
1748 1747 1
1749 1748 1
1750 1749 1
1777 1827 1
1827 1877 1
1877 1927 1
1927 1977 1
1977 2027 1
2027 2077 1
2077 2127 1
2127 2177 1
2177 2227 1
2227 2277 1
2277 2327 1
2327 2377 1
2377 2427 1
2427 2477 1
2461 2460 1
2462 2461 1
2463 2462 1
2464 2463 1
2465 2464 1
2466 2465 1
2467 2466 1
2468 2467 1
2469 2468 1
2470 2469 1
2471 2470 1
2472 2471 1
2473 2472 1
2474 2473 1
2475 2474 1
2476 2475 1
2477 2476 1
 98  48 2
148  98 2
198 148 2
248 198 2
298 248 2
348 298 2
398 348 2
448 398 2
498 448 2
548 498 2
598 548 2
648 598 2
698 648 2
748 698 2
798 748 2
848 798 2
898 848 2
898 948 2
899 898 2
900 899 2
948 998 2
998 3498 2
3498 3548 2
3548 3598 2
3598 3648 2
3648 3698 2
3698 3748 2
3748 3798 2
3798 3848 2
3848 3898 2
3898 3948 2
3948 3998 2
3998 4048 2
4048 4098 2
4098 4148 2
4148 4198 2
4198 4248 2
4248 4298 2
4295 4345 2
4296 4295 2
4297 4296 2
4298 4297 2
4298 4299 2
4299 4300 2
4300 1800 2
4345 4395 2
4391 4441 2
4392 4391 2
4393 4392 2
4394 4393 2
4395 4394 2
4430 4480 2
4431 4430 2
4432 4431 2
4433 4432 2
4434 4433 2
4435 4434 2
4436 4435 2
4437 4436 2
4438 4437 2
4439 4438 2
4440 4439 2
4441 4440 2
2002 2052 2
2003 2002 2
2004 2003 2
2005 2004 2
2006 2005 2
2007 2006 2
2008 2007 2
2009 2008 2
2010 2009 2
2011 2010 2
2012 2011 2
2013 2012 2
2014 2013 2
2015 2014 2
2016 2015 2
2017 2016 2
2018 2017 2
2019 2018 2
2020 2019 2
2021 2020 2
4471 4521 2
4472 4471 2
4473 4472 2
4474 4473 2
4475 4474 2
4476 4475 2
4477 4476 2
4478 4477 2
4479 4478 2
4480 4479 2
2052 2102 2
4521 2021 2
2102 2152 2
2152 2151 2
2454 2453 3
2455 2454 3
2456 2455 3
2457 2456 3
2458 2457 3
2459 2458 3
2478 4978 3
2479 2478 3
2480 2479 3
2481 2480 3
2482 2481 3
2483 2482 3
2484 2483 3
2485 2484 3
2486 2485 3
2487 2486 3
2488 2487 3
2489 2488 3
4959 2459 3
4960 4959 3
4961 4960 3
4962 4961 3
4963 4962 3
4964 4963 3
4965 4964 3
4966 4965 3
4967 4966 3
4968 4967 3
4969 4968 3
4970 4969 3
4971 4970 3
4972 4971 3
4973 4972 3
4974 4973 3
4975 4974 3
4976 4975 3
4977 4976 3
4978 4977 3
 85  35 4
135  85 4
185 135 4
235 185 4
285 235 4
335 285 4
385 335 4
435 385 4
485 435 4
501 451 4
535 485 4
551 501 4
585 535 4
601 551 4
635 585 4
651 601 4
685 635 4
701 651 4
735 685 4
751 701 4
785 735 4
801 751 4
835 785 4
851 801 4
885 835 4
901 851 4
935 885 4
951 901 4
985 935 4
1001 951 4
1035 985 4
1051 1001 4
1051 3551 4
1084 1085 4
1085 1035 4
1085 1086 4
1086 1136 4
1101 1051 4
3551 3552 4
3552 3553 4
3553 3554 4
3554 3555 4
3555 3556 4
3556 3557 4
3557 3558 4
3558 3559 4
3559 3560 4
3560 3561 4
3561 3562 4
3562 3563 4
3563 3564 4
3564 3565 4
3565 3566 4
3566 3567 4
3567 3568 4
3568 3569 4
3569 3570 4
3570 3571 4
3571 3572 4
3572 3573 4
3573 3574 4
3574 3575 4
3575 3576 4
3576 3577 4
3577 3578 4
3578 3579 4
3579 3580 4
3580 3581 4
3581 3582 4
3582 3583 4
3583 3584 4
3584 1084 4
1136 1137 4
1137 1187 4
1187 1237 4
1237 1238 4
1238 1239 4
1239 1240 4
1240 1241 4
1241 1242 4
1242 1243 4
1243 1244 4
1244 1245 4
1245 1246 4
1246 1247 4
1247 1297 4
1297 1298 4
1298 1348 4
1348 1349 4
1349 1399 4
1399 1400 4
 24  23 5
 25  24 5
 26  25 5
 27  26 5
 28  27 5
 29  28 5
 30  29 5
 31  30 5
 32  31 5
 33  32 5
 83  33 5
133  83 5
134 133 5
184 134 5
2684 184 5
2685 2684 5
2735 2685 5
2785 2735 5
2835 2785 5
2836 2835 5
2837 2836 5
2838 2837 5
2839 2838 5
2840 2839 5
2841 2840 5
2842 2841 5
2843 2842 5
2893 2843 5
2943 2893 5
500 3000 5
2993 2943 5
2993 3043 5
2994 2993 5
2995 2994 5
2996 2995 5
2997 2996 5
2998 2997 5
2999 2998 5
3000 2999 5
3043 3093 5
3093 3143 5
3143 3193 5
3193 3243 5
3243 3293 5
3293 3343 5
3343 3393 5
3393 3443 5
3443 3493 5
3493 3543 5
3543 3593 5
3593 3643 5
3643 3693 5
3693 3743 5
3743 3793 5
3793 3843 5
3843 3893 5
3893 3943 5
3943 3993 5
3993 4043 5
4043 4093 5
4093 4143 5
4143 4193 5
4193 4243 5
1793 1843 5
4243 4293 5
1843 1893 5
4293 1793 5
1893 1943 5
1943 1993 5
1993 2043 5
2043 2093 5
2093 2143 5
2143 2193 5
2193 2243 5
2243 2293 5
2293 2343 5
2343 2393 5
2393 2443 5
2443 2493 5
2493 2492 5
2493 2494 5
2494 2495 5
2495 2496 5
2496 2497 5
2497 2498 5
2498 2499 5
2499 2500 5
2513  13 6
2514 2513 6
2515 2514 6
2516 2515 6
2517 2516 6
2518 2517 6
2519  19 6
2519 2518 6
2520 2519 6
2521 2520 6
2522 2521 6
2523 2522 6
2524 2523 6
2525 2524 6
2526 2525 6
2527 2526 6
2528 2527 6
2529 2528 6
2530 2529 6
2531 2530 6
2532 2531 6
2533 2532 6
2534 2533 6
2535 2534 6
2536 2535 6
2537 2536 6
2538 2537 6
2539 2538 6
2540 2539 6
2541 2540 6
2542 2541 6
2543 2542 6
2544 2543 6
2545 2544 6
2546 2545 6
2547 2546 6
2548 2547 6
 50 100 6
 50 2550 6
2549 2548 6
100 150 6
2550 2549 6
150 200 6
200 250 6
250 300 6
300 350 6
350 400 6
  8   7 7
  9   8 7
 10   9 7
 11  10 7
 12  11 7
 62  12 7
 63  62 7
 64  63 7
 65  15 7
 65  64 7
115  65 7
165 115 7
215 165 7
265 215 7
315 265 7
365 315 7
415 365 7
465 415 7
515 465 7
565 515 7
615 565 7
665 615 7
715 665 7
765 715 7
815 765 7
865 815 7
915 865 7
965 915 7
1015 965 7
1065 1015 7
1115 1065 7
1165 1115 7
1215 1165 7
1265 1215 7
1315 1265 7
1365 1315 7
1415 1365 7
1465 1415 7
1515 1465 7
1565 1515 7
1615 1565 7
1665 1615 7
1715 1665 7
1765 1715 7
1815 1765 7
1816 1815 7
1817 1816 7
1818 1817 7
1819 1818 7
1844 4344 7
4319 1819 7
4320 4319 7
4321 4320 7
4322 4321 7
4323 4322 7
4324 4323 7
4325 4324 7
4326 4325 7
4327 4326 7
4328 4327 7
4329 4328 7
4330 4329 7
4331 4330 7
4332 4331 7
4333 4332 7
4334 4333 7
4335 4334 7
4336 4335 7
4337 4336 7
4338 4337 7
4339 4338 7
4340 4339 7
4341 4340 7
4342 4341 7
4343 4342 7
1894 1844 7
4344 4343 7
1895 1894 7
1896 1895 7
1897 1896 7
1898 1897 7
1899 1898 7
1900 1899 7
1950 1900 7
 16  66 8
 66 2566 8
 37  38 8
 38  39 8
 87  37 8
 39  40 8
 40  41 8
 41  42 8
 42  43 8
 43  44 8
 44  45 8
 45  46 8
 46  47 8
 47  97 8
 97 2597 8
 99 149 8
2566 2567 8
2567 2568 8
2568 2569 8
2569 2570 8
2570 2571 8
2571 2572 8
2572 2573 8
2573 2574 8
2574 2575 8
2575 2576 8
2576 2577 8
2577 2578 8
2578 2579 8
2579 2580 8
2580 2581 8
2581 2582 8
2582 2583 8
2583 2584 8
2584 2585 8
2585 2586 8
2586 2587 8
2587  87 8
2597 2598 8
2598 2599 8
149 199 8
2599  99 8
199 249 8
249 299 8
299 349 8
349 399 8
399 449 8
449 499 8
499 549 8
549 550 8
1201 1151 9
1251 1201 9
1301 1251 9
1351 1301 9
1401 1351 9
1451 1401 9
1501 1451 9
1551 1501 9
1601 1551 9
1651 1601 9
1701 1651 9
1751 1701 9
1801 1751 9
1851 1801 9
1901 1851 9
  4 2504 10
2504 5004 10
3250 750 10
5004 5054 10
5054 5104 10
5104 5154 10
5154 5204 10
5204 5254 10
5254 5304 10
5304 5354 10
5354 5404 10
5404 5454 10
5454 5504 10
5504 5554 10
5554 5604 10
5604 5605 10
5605 5606 10
5606 5607 10
5607 5608 10
5608 5609 10
5609 5610 10
5610 5611 10
5611 5612 10
5612 5613 10
5613 5614 10
5614 5615 10
5615 5616 10
5616 5617 10
5617 5618 10
5618 5619 10
5619 5620 10
5620 5621 10
5621 5671 10
5671 5672 10
5672 5673 10
5673 5674 10
5674 5675 10
5675 5676 10
5676 5677 10
5677 5678 10
5678 5679 10
5679 5680 10
5680 5681 10
5681 5682 10
5682 5683 10
5683 5684 10
5684 5685 10
5685 5686 10
5686 5687 10
5687 5737 10
5737 5738 10
5738 5739 10
5739 5740 10
5740 5741 10
5741 5742 10
5742 5743 10
5743 5744 10
5744 5745 10
5745 5746 10
5746 5747 10
5747 5748 10
5748 5749 10
5749 5750 10
5750 3250 10
2000 2050 11
2050 2100 11
2100 2150 11
2150 2200 11
2200 2250 11
2250 2300 11
2300 2350 11
2350 2400 11
2400 2450 11
699 749 12
700 699 12
749 799 12
799 849 12
849 3349 12
3349 3399 12
3399 3449 12
3449 3450 12
3450 3500 12
1050 1100 12
3500 3550 12
1100 1150 12
3550 1050 12
1150 1200 12
1200 1250 12
